50, 581
40, 41
5, 4
12, 5
5, 36
13, 24
48, 9
7, 37
40, 47
3, 21
36, 15
31, 13
19, 35
28, 12
4, 9
49, 49
42, 1
44, 47
1, 5
38, 23
44, 35
9, 39
22, 24
8, 22
45, 47
25, 12
36, 49
39, 32
38, 38
44, 46
18, 30
21, 10
46, 40
27, 9
7, 3
3, 18
33, 47
14, 21
17, 9
39, 29
41, 13
13, 2
42, 7
44, 22
22, 14
19, 2
40, 43
22, 24
39, 9
30, 16
40, 17
